! Opt LooseOpt   M06L def2-SVP RIJCOSX def2/J TightSCF miniprint pal4
%geom Constraints
        {C 0 C}
        {C 75 C}
        {C 74 C}
        {C 76 C}
        {C 77 C}
        end
      end

* xyz 0 1
  Ni      1.537968      4.505652     15.283013
  Fe     -0.537255      0.992395     14.136462
  C       3.252252      7.400821     15.341960
  C       4.268425      8.353884     15.183531
  H       5.175225      8.087663     14.632870
  C       4.126042      9.628731     15.723143
  H       4.924360     10.363862     15.596721
  C       2.965033      9.965742     16.426111
  H       2.851580     10.963707     16.856406
  C       1.947160      9.029657     16.578794
  H       1.036974      9.291945     17.125714
  C       2.080345      7.745060     16.031838
  C       0.342643      3.176564     18.170402
  C      -0.273267      2.160393     18.915863
  H      -1.031119      1.522961     18.453141
  C       0.068471      1.957702     20.251286
  H      -0.424439      1.165439     20.819614
  C       1.031815      2.762231     20.857625
  H       1.297221      2.600945     21.904913
  C       1.655006      3.769507     20.121492
  H       2.412788      4.403295     20.587176
  C       1.314421      3.975700     18.786342
  H       1.804360      4.763954     18.205647
  C      -1.692936      4.382835     16.469875
  C      -2.509709      4.418200     17.605078
  H      -2.172422      3.968938     18.541895
  C      -3.757846      5.036832     17.553485
  H      -4.384672      5.058510     18.447846
  C      -4.204514      5.621835     16.370151
  H      -5.183243      6.105148     16.331875
  C      -3.390866      5.601731     15.238054
  H      -3.726372      6.072166     14.311379
  C      -2.139817      4.993306     15.289711
  H      -1.488201      5.009737     14.411366
  C       3.151669      1.540727     15.309522
  C       3.719511      0.339759     14.862055
  H       3.750370      0.112829     13.792713
  C       4.270573     -0.556644     15.774540
  H       4.702880     -1.494455     15.417833
  C       4.277786     -0.256096     17.138372
  H       4.705232     -0.965419     17.850788
  C       3.759558      0.957977     17.585826
  H       3.786076      1.215127     18.647349
  C       3.209362      1.854327     16.671265
  H       2.813918      2.818700     17.003687
  C       3.614144      2.971903     12.893935
  C       4.970446      3.030857     13.244256
  H       5.271080      2.902653     14.287397
  C       5.938716      3.263024     12.270008
  H       6.991848      3.306695     12.555799
  C       5.565303      3.441392     10.939880
  H       6.326098      3.618328     10.176409
  C       4.217741      3.390256     10.585152
  H       3.919098      3.530574      9.544118
  C       3.246206      3.161208     11.556121
  H       2.192099      3.128598     11.268303
  C      -0.753900      1.830367     15.944669
  C      -0.067275      0.569407     16.047306
  H       0.934292      0.417298     16.449928
  C      -0.922256     -0.444790     15.524841
  H      -0.672694     -1.501511     15.438175
  C      -2.136511      0.169417     15.100795
  H      -2.980394     -0.334051     14.631040
  C      -2.043122      1.565938     15.364065
  H      -2.805602      2.312579     15.145014
  C      -0.129148      2.441584     12.803487
  H      -0.364070      3.500679     12.923091
  C       1.071619      1.811620     13.287060
  C       0.982229      0.416126     12.946901
  H       1.703065     -0.360372     13.195851
  C      -0.257735      0.200132     12.277485
  H      -0.629908     -0.761055     11.924800
  C      -0.942971      1.446958     12.189194
  H      -1.929039      1.606068     11.755263
  Se      3.428534      5.656721     14.613689
  Se      0.667282      6.485850     16.151244
  P       2.341280      2.742886     14.190396
  P      -0.094402      3.473279     16.406501
*
 

